 200 69 
 57 30 87 2 100 94 89 98 17 48 5 100 
 56 52 78 8 89 58 13 84 3 100 56 27 
 3 50 34 4 86 25 71 72 70 60 13 75 
 62 7 75 22 96 66 97 17 40 80 56 62 
 73 93 84 54 38 21 78 19 48 41 5 43 
 21 78 35 37 49 95 94 20 65 
 55 
 1 3 4 5 7 8 9 10 12 13 14 15 
 16 17 18 19 21 22 23 25 26 27 28 29 
 30 31 32 33 36 37 39 40 41 42 43 44 
 46 47 48 49 50 53 55 56 57 58 59 62 
 63 64 65 66 67 68 69 
 42 
 2 3 7 8 9 10 11 13 15 16 17 19 
 20 21 27 28 30 31 33 36 38 39 40 41 
 42 43 45 48 49 50 51 53 54 57 58 59 
 61 63 64 66 67 69 
 23 
 4 10 11 13 15 16 20 21 23 28 29 31 
 32 36 39 44 48 54 56 63 67 68 69 
 36 
 1 3 4 8 9 12 13 14 15 17 20 21 
 22 23 24 27 32 33 35 36 37 40 41 43 
 45 46 47 49 53 55 56 58 62 64 67 68 
 67 
 1 2 3 4 5 6 7 8 9 10 11 12 
 15 16 17 18 19 20 21 22 23 24 25 26 
 27 28 29 30 31 32 33 34 35 36 37 38 
 39 40 41 42 43 44 45 46 47 48 49 50 
 51 52 53 54 55 56 57 58 59 60 61 62 
 63 64 65 66 67 68 69 
 12 
 3 7 21 26 31 41 51 52 55 56 57 58 
 30 
 1 3 5 6 8 9 11 12 14 15 22 24 
 25 26 31 32 33 39 40 44 51 53 54 61 
 63 65 66 67 68 69 
 13 
 17 25 30 34 35 37 38 42 54 58 62 64 
 68 
 29 
 7 8 13 14 17 19 20 23 24 31 33 34 
 36 37 38 39 40 42 43 49 50 51 55 56 
 59 61 62 63 66 
 5 
 8 57 62 68 69 
 39 
 1 2 4 9 10 11 12 16 17 18 19 21 
 22 23 24 25 26 27 30 32 36 39 41 42 
 46 48 49 53 54 55 58 61 62 64 65 66 
 67 68 69 
 9 
 1 8 13 26 32 37 51 52 55 
 11 
 9 11 14 26 30 36 38 41 42 58 62 
 13 
 18 21 22 25 26 27 29 32 43 45 47 61 
 63 
 63 
 1 2 3 4 5 6 7 8 9 10 11 12 
 13 14 15 16 18 19 20 21 22 23 24 25 
 27 28 29 30 31 32 33 34 35 36 37 38 
 39 40 41 42 44 45 46 48 49 50 51 52 
 53 54 55 56 57 58 59 60 63 64 65 66 
 67 68 69 
 32 
 1 3 5 6 11 13 14 18 19 20 22 24 
 26 28 29 31 32 33 34 36 40 47 48 50 
 51 53 54 57 60 63 64 66 
 8 
 5 9 18 19 25 29 40 55 
 69 
 1 2 3 4 5 6 7 8 9 10 11 12 
 13 14 15 16 17 18 19 20 21 22 23 24 
 25 26 27 28 29 30 31 32 33 34 35 36 
 37 38 39 40 41 42 43 44 45 46 47 48 
 49 50 51 52 53 54 55 56 57 58 59 60 
 61 62 63 64 65 66 67 68 69 
 24 
 2 3 4 10 13 17 20 21 28 29 30 33 
 35 36 39 50 51 53 55 57 59 61 62 68 
 54 
 1 2 5 6 7 8 10 11 13 15 16 17 
 19 20 21 22 23 24 25 27 28 29 30 31 
 33 34 37 38 41 42 43 44 45 46 47 50 
 51 52 53 54 55 56 57 58 59 60 61 63 
 64 65 66 67 68 69 
 50 
 2 3 5 6 7 8 9 10 12 13 14 16 
 17 18 19 20 22 23 24 25 26 27 28 29 
 33 34 35 36 37 39 41 42 43 44 45 46 
 47 48 50 53 54 56 59 60 62 64 66 67 
 68 69 
 67 
 1 2 3 4 5 6 7 8 9 10 11 12 
 13 14 15 16 17 18 19 20 21 22 23 24 
 25 26 27 28 29 30 32 33 34 35 36 37 
 38 39 40 42 43 44 45 46 47 48 49 50 
 51 52 53 54 55 56 57 58 59 60 61 62 
 63 64 65 66 67 68 69 
 57 
 1 2 3 4 5 6 7 8 9 10 11 14 
 15 16 17 18 20 23 24 25 26 28 29 30 
 32 33 34 35 36 37 38 39 41 42 44 45 
 46 47 48 50 51 52 53 54 55 56 58 59 
 60 62 63 64 65 66 67 68 69 
 9 
 1 2 5 11 26 41 43 45 56 
 35 
 1 2 5 6 7 8 12 14 15 19 22 23 
 24 26 27 28 30 32 33 35 36 38 39 44 
 46 48 52 55 56 57 61 62 63 64 67 
 59 
 1 2 3 4 5 9 12 13 14 15 16 17 
 18 19 20 21 22 23 24 27 28 29 30 31 
 32 33 34 35 36 37 38 39 40 41 42 43 
 44 45 46 47 48 50 51 52 54 56 57 58 
 59 60 61 62 63 64 65 66 67 68 69 
 35 
 5 7 8 9 10 12 14 16 17 18 19 20 
 24 25 26 28 30 33 36 38 40 43 45 46 
 47 49 50 52 53 54 56 57 63 64 65 
 48 
 1 2 3 4 5 6 7 8 11 12 13 14 
 15 16 17 18 20 21 22 23 24 26 30 31 
 32 33 34 36 37 38 39 40 41 42 43 46 
 49 50 51 52 54 57 59 61 63 65 66 68 
 63 
 1 2 3 4 5 7 8 9 10 11 12 13 
 14 15 16 17 18 19 20 21 22 24 26 28 
 29 30 31 32 33 34 35 36 37 38 39 40 
 41 42 44 45 46 48 49 50 51 52 53 54 
 55 56 57 58 59 60 61 62 63 64 65 66 
 67 68 69 
 52 
 1 2 4 5 6 7 8 10 11 14 15 17 
 19 20 21 22 23 26 27 28 29 30 33 34 
 35 36 37 39 41 42 43 44 45 46 47 48 
 49 50 51 52 53 54 56 58 59 60 62 63 
 64 65 66 69 
 9 
 24 28 32 33 37 38 41 48 49 
 22 
 2 3 5 9 14 16 20 22 24 31 33 34 
 37 42 45 49 50 53 58 60 65 66 
 37 
 1 3 9 10 12 16 17 18 21 22 23 25 
 27 28 29 32 34 35 36 38 41 42 43 48 
 49 50 52 54 57 59 60 63 64 65 67 68 
 69 
 5 
 10 34 43 62 65 
 38 
 2 3 5 7 8 9 10 11 12 13 14 15 
 16 20 21 23 24 29 32 33 35 36 37 38 
 39 40 41 44 46 49 53 55 56 57 58 59 
 62 64 
 67 
 1 3 4 5 6 7 8 9 10 11 12 13 
 14 15 16 17 18 19 20 21 22 23 24 25 
 26 27 28 29 30 31 32 33 34 35 36 37 
 38 39 40 41 42 43 44 45 46 47 48 49 
 50 51 52 53 54 55 56 57 58 59 61 62 
 63 64 65 66 67 68 69 
 67 
 1 2 3 4 5 6 7 8 9 10 11 12 
 13 14 15 16 17 18 19 20 21 22 23 24 
 26 27 28 29 30 31 32 33 34 35 36 37 
 38 39 40 41 42 43 44 45 46 47 48 49 
 50 51 52 53 54 55 56 57 58 59 60 61 
 62 64 65 66 67 68 69 
 52 
 2 5 6 7 8 9 10 11 12 13 14 16 
 18 20 21 22 24 25 26 28 30 31 32 33 
 34 36 38 39 40 41 42 43 45 46 47 48 
 49 53 54 55 56 57 59 60 61 63 64 65 
 66 67 68 69 
 14 
 9 10 11 16 24 29 31 32 34 37 51 56 
 65 67 
 3 
 4 13 38 
 29 
 1 2 6 7 8 11 13 14 15 18 20 21 
 22 26 28 31 35 36 37 39 44 45 47 51 
 56 57 65 66 69 
 15 
 8 9 10 14 21 23 29 35 38 44 48 51 
 54 55 56 
 11 
 3 15 16 17 23 27 29 31 42 51 59 
 44 
 2 5 6 9 10 11 14 15 16 18 19 21 
 22 23 26 27 28 29 30 32 33 34 37 39 
 43 44 45 46 48 49 50 52 56 59 60 61 
 62 63 64 65 66 67 68 69 
 40 
 3 4 5 7 8 10 14 15 16 17 18 19 
 20 22 24 26 27 28 29 30 31 37 38 40 
 41 44 46 47 48 50 51 52 53 55 59 60 
 62 64 67 69 
 32 
 2 5 6 9 12 15 17 24 25 29 30 37 
 38 40 41 43 45 47 49 50 51 52 58 59 
 60 61 63 64 65 66 68 69 
 50 
 3 4 5 8 9 10 11 14 15 18 19 20 
 21 23 24 25 26 27 28 29 30 34 35 37 
 38 41 42 43 44 45 46 48 49 51 52 53 
 54 55 56 57 58 59 60 61 62 63 64 65 
 66 67 
 51 
 1 3 4 5 6 8 9 12 13 14 15 16 
 17 18 19 20 21 22 23 26 27 28 29 30 
 32 35 36 37 38 39 41 42 43 47 48 50 
 51 52 53 54 55 56 57 58 60 62 63 64 
 66 68 69 
 67 
 1 2 3 4 5 6 7 8 9 10 11 12 
 13 14 15 16 17 18 19 20 21 22 23 24 
 25 26 27 28 29 30 31 32 33 34 35 36 
 37 38 39 40 41 42 43 44 45 46 47 48 
 49 50 51 52 53 54 55 56 57 58 59 60 
 61 63 64 65 66 67 69 
 8 
 11 14 24 40 47 48 51 55 
 32 
 3 8 9 11 12 14 16 19 20 22 23 24 
 26 28 35 36 38 39 40 41 43 44 46 48 
 49 50 55 56 59 63 65 66 
 24 
 1 5 7 11 13 17 19 26 27 31 33 35 
 49 50 51 56 57 58 59 61 62 63 66 68 
 40 
 1 4 6 7 9 10 14 16 20 22 23 24 
 26 31 32 33 34 37 38 40 42 43 44 48 
 51 52 54 55 56 57 58 59 60 61 62 63 
 64 66 68 69 
 2 
 51 61 
 19 
 2 6 7 9 15 23 25 29 40 44 46 49 
 50 58 61 63 66 68 69 
 40 
 1 3 4 6 7 10 12 13 14 15 18 21 
 22 28 29 30 31 32 36 37 38 39 41 42 
 45 46 47 48 50 51 53 55 56 57 58 61 
 63 65 67 69 
 34 
 1 2 3 5 6 8 9 12 13 14 15 18 
 19 20 21 22 25 26 27 28 32 34 39 42 
 43 44 46 54 59 60 62 66 67 68 
 43 
 3 4 7 8 9 14 16 17 19 21 23 24 
 25 26 28 29 30 33 36 37 41 42 43 44 
 45 46 47 48 49 51 53 54 56 58 59 61 
 62 63 64 65 66 67 69 
 13 
 7 9 11 12 13 16 19 28 35 45 51 52 
 55 
 56 
 1 2 3 4 5 7 8 9 10 11 12 13 
 14 15 16 17 18 19 21 23 25 26 27 30 
 31 32 33 35 36 37 38 39 40 42 43 44 
 45 46 47 48 51 52 53 54 55 57 58 59 
 60 63 64 65 66 67 68 69 
 33 
 1 2 4 5 6 7 8 13 23 25 26 30 
 31 34 35 37 38 39 40 42 45 47 50 51 
 53 54 57 60 63 64 66 67 69 
 15 
 1 2 4 14 17 22 28 30 35 50 55 56 
 60 64 65 
 43 
 1 2 4 6 7 8 9 11 12 18 19 20 
 22 23 24 25 26 29 30 32 33 34 36 38 
 39 40 41 42 43 44 45 47 49 50 51 52 
 54 55 57 58 60 64 69 
 13 
 3 6 10 12 17 25 28 30 50 57 63 67 
 68 
 66 
 1 2 3 4 5 6 7 8 9 10 11 12 
 13 14 15 16 17 18 19 20 21 22 23 24 
 25 26 27 28 29 30 31 32 34 35 36 37 
 38 39 40 41 42 44 45 46 47 48 49 50 
 51 52 53 54 56 57 58 59 60 61 62 63 
 64 65 66 67 68 69 
 19 
 2 5 7 9 10 12 15 24 32 43 45 47 
 52 58 62 63 65 66 69 
 63 
 1 2 4 5 6 7 8 9 10 11 12 13 
 15 16 17 18 19 20 21 22 23 24 25 26 
 28 29 30 31 32 33 34 35 36 37 38 39 
 41 42 43 44 45 46 47 48 49 51 52 53 
 54 55 57 58 59 60 61 62 63 64 65 66 
 67 68 69 
 31 
 1 2 11 12 13 15 17 19 20 24 28 30 
 31 33 34 38 40 42 45 47 50 53 54 55 
 57 60 61 62 64 65 67 
 38 
 1 2 5 7 10 11 12 14 15 19 24 27 
 28 30 31 33 34 35 37 42 43 44 45 46 
 49 50 51 52 53 54 58 59 60 61 64 65 
 66 68 
 4 
 36 43 49 59 
 26 
 5 9 10 11 13 14 15 20 24 26 27 28 
 29 32 34 35 39 40 42 46 54 57 59 67 
 68 69 
 63 
 2 3 4 5 6 7 8 9 10 11 12 14 
 15 16 17 18 19 20 21 23 24 25 26 27 
 28 29 30 31 32 33 34 37 38 39 40 41 
 42 43 44 45 46 47 48 49 50 51 52 53 
 54 55 56 57 58 59 60 61 63 64 65 66 
 67 68 69 
 3 
 2 23 54 
 64 
 1 3 4 5 6 7 8 9 11 12 13 14 
 15 16 17 18 19 20 21 22 24 25 26 27 
 28 29 30 31 32 34 35 36 37 38 39 40 
 41 42 43 44 46 47 48 49 50 51 52 53 
 54 55 56 57 58 59 60 61 62 63 64 65 
 66 67 68 69 
 54 
 2 3 4 6 8 11 13 14 15 16 17 19 
 21 22 23 24 26 27 28 29 30 32 33 34 
 36 37 38 39 40 41 42 43 44 46 47 48 
 49 50 51 52 53 55 56 57 58 59 60 61 
 62 63 64 65 66 68 
 11 
 8 11 17 20 28 33 44 46 58 61 69 
 48 
 1 2 3 5 7 9 10 11 12 13 14 15 
 16 17 21 22 24 25 26 28 29 32 35 36 
 37 38 39 40 41 42 44 45 46 47 50 51 
 53 54 55 56 57 59 60 61 63 67 68 69 
 35 
 2 3 4 8 9 11 12 14 15 21 22 26 
 27 31 33 34 36 37 38 47 48 49 51 52 
 54 55 57 59 60 62 63 64 65 66 69 
 8 
 1 13 23 24 28 32 43 58 
 60 
 1 2 3 5 6 8 10 11 12 13 14 15 
 16 17 18 19 20 22 23 24 25 26 27 28 
 29 30 31 32 33 34 35 36 37 38 39 40 
 43 44 45 46 47 48 49 50 51 53 54 55 
 56 57 59 60 61 62 63 64 65 66 68 69 
 6 
 4 13 29 35 44 58 
 43 
 1 4 6 9 10 11 12 13 15 17 18 20 
 21 22 23 27 28 29 30 32 33 34 35 38 
 40 41 44 45 46 49 53 54 56 57 58 59 
 61 62 63 64 65 67 69 
 41 
 2 3 4 7 9 10 12 13 14 15 17 18 
 19 21 22 23 26 28 29 31 35 37 38 40 
 41 42 43 44 45 47 48 49 54 55 59 62 
 65 66 67 68 69 
 20 
 1 11 15 17 22 23 26 28 30 34 42 43 
 51 52 59 60 62 65 66 69 
 67 
 1 2 3 4 5 6 7 8 9 10 11 12 
 13 14 15 16 17 18 19 20 21 22 23 24 
 25 26 27 28 29 30 31 32 33 34 35 36 
 37 38 39 40 41 42 43 44 45 46 47 48 
 49 50 51 53 54 55 56 57 58 59 60 61 
 62 64 65 66 67 68 69 
 19 
 1 7 10 15 16 22 28 32 33 42 44 46 
 48 51 53 54 56 61 67 
 61 
 1 2 3 4 5 6 7 8 9 10 11 12 
 13 14 15 16 17 18 19 21 22 24 25 26 
 27 28 29 30 31 32 33 35 36 37 38 40 
 41 42 43 44 45 46 47 48 49 50 51 52 
 53 54 55 56 58 59 60 61 62 65 67 68 
 69 
 43 
 1 2 3 4 5 7 13 14 16 18 19 21 
 24 26 27 28 29 30 32 33 34 36 37 38 
 39 40 41 42 44 45 47 51 53 55 56 58 
 62 63 65 66 67 68 69 
 38 
 1 2 3 4 5 6 7 15 16 19 20 21 
 23 24 26 29 30 31 32 33 34 36 38 39 
 42 46 47 48 49 50 54 55 59 60 63 64 
 65 67 
 24 
 1 4 5 11 13 14 18 24 25 28 34 35 
 38 39 41 42 44 46 52 54 56 57 59 62 
 41 
 2 6 7 9 10 12 13 15 16 17 18 19 
 21 23 28 30 32 33 36 37 38 39 40 41 
 43 44 45 46 48 49 53 55 58 59 61 62 
 63 64 65 66 68 
 35 
 1 2 3 4 6 7 8 9 12 15 19 22 
 23 24 26 27 29 30 36 38 39 42 44 46 
 47 51 53 54 56 57 58 59 62 64 68 
 11 
 16 19 24 25 29 39 44 56 58 60 69 
 57 
 1 2 3 4 5 7 8 9 11 12 13 14 
 15 16 17 19 20 22 23 25 26 27 28 29 
 30 31 33 34 35 36 37 38 39 40 43 44 
 46 47 48 49 50 51 52 53 54 55 56 57 
 59 60 62 63 65 66 67 68 69 
 2 
 36 37 
 65 
 1 2 3 4 5 7 8 9 10 11 12 13 
 14 15 16 17 18 19 20 21 22 23 24 25 
 26 27 28 29 30 31 32 33 34 35 37 39 
 40 41 42 43 44 45 46 47 48 49 50 51 
 52 53 54 56 57 58 59 60 61 62 63 64 
 65 66 67 68 69 
 62 
 2 4 5 6 7 8 9 10 11 12 13 15 
 16 18 19 20 21 22 23 24 25 26 27 28 
 29 30 31 32 33 34 36 37 38 39 40 41 
 42 43 44 45 46 47 48 49 50 51 52 53 
 54 55 56 57 58 60 62 63 64 65 66 67 
 68 69 
 7 
 3 19 21 28 29 31 40 
 15 
 5 7 17 20 26 27 28 34 37 38 42 45 
 48 50 59 
 50 
 1 2 3 4 5 8 10 11 12 13 14 15 
 16 17 19 20 21 22 23 24 25 26 28 29 
 32 33 36 37 39 40 41 42 45 48 49 50 
 51 53 55 56 58 59 60 61 62 63 64 65 
 68 69 
 40 
 4 5 7 10 11 13 14 15 16 17 18 19 
 20 21 22 23 25 26 29 32 33 37 38 39 
 40 41 42 45 46 48 49 51 55 59 61 62 
 63 64 65 69 
 49 
 2 4 5 6 7 8 10 12 15 16 18 19 
 20 21 23 24 25 27 28 30 32 33 34 36 
 37 38 40 41 42 43 44 45 47 50 52 53 
 55 56 57 58 59 60 61 62 64 65 66 67 
 69 
 33 
 2 4 6 7 11 12 13 14 17 22 23 24 
 25 28 29 32 33 35 36 37 40 44 45 47 
 49 50 51 53 54 61 62 66 69 
 56 
 1 2 3 4 5 6 7 8 9 10 13 14 
 15 16 18 19 20 21 22 24 25 27 28 29 
 31 32 33 34 35 36 38 39 41 42 43 44 
 45 46 47 48 49 51 52 54 55 56 58 60 
 61 62 63 64 65 67 68 69 
 24 
 11 13 14 18 20 21 24 28 30 32 33 37 
 38 39 40 41 49 51 58 61 62 63 64 65 
 39 
 1 2 3 6 7 9 11 13 14 15 16 18 
 21 24 27 28 29 30 32 33 35 36 39 40 
 41 42 47 48 49 50 52 53 57 58 61 62 
 63 66 67 
 68 
 1 2 3 4 5 6 7 8 9 10 11 12 
 13 14 15 16 17 18 19 20 21 22 23 25 
 26 27 28 29 30 31 32 33 34 35 36 37 
 38 39 40 41 42 43 44 45 46 47 48 49 
 50 51 52 53 54 55 56 57 58 59 60 61 
 62 63 64 65 66 67 68 69 
 36 
 3 4 5 7 8 9 10 11 18 22 23 24 
 26 27 32 33 34 35 36 37 38 40 41 42 
 43 44 46 51 52 53 55 58 61 62 66 68 
 16 
 6 9 10 13 23 31 36 40 45 47 49 52 
 53 57 64 65 
 3 
 20 38 60 
 43 
 3 4 5 6 9 12 13 14 15 17 18 20 
 21 22 25 26 27 28 29 31 33 34 36 38 
 39 41 42 43 44 45 46 49 51 52 53 56 
 57 58 61 62 64 67 68 
 3 
 9 10 14 
 9 
 3 16 18 22 23 30 32 43 48 
 52 
 1 2 4 5 6 9 10 11 13 14 15 16 
 17 18 19 20 21 23 24 25 26 27 28 29 
 31 32 34 35 36 37 38 39 40 42 43 44 
 45 48 49 50 51 52 53 58 60 62 63 64 
 65 66 67 69 
 34 
 1 2 4 6 8 9 11 12 14 16 20 24 
 26 27 28 30 33 35 37 41 42 45 47 49 
 50 53 55 56 60 62 64 66 67 68 
 37 
 3 5 6 9 10 15 17 19 23 24 25 26 
 28 29 30 31 32 34 36 42 43 45 46 47 
 49 50 55 56 57 59 60 64 65 66 67 68 
 69 
 26 
 3 5 6 7 8 9 11 13 15 16 17 20 
 21 27 29 37 38 39 42 47 48 52 59 61 
 62 64 
 38 
 1 2 7 8 9 10 12 15 17 18 19 20 
 22 23 26 27 29 34 35 38 40 42 45 46 
 48 49 50 52 53 55 56 57 59 60 64 67 
 68 69 
 13 
 3 11 19 25 28 31 36 44 45 46 47 49 
 50 
 7 
 15 36 38 41 54 57 62 
 41 
 1 4 7 8 9 10 11 12 13 14 15 16 
 17 18 23 24 25 26 27 28 29 30 34 35 
 36 39 44 45 46 48 49 53 55 56 58 59 
 60 62 65 67 68 
 58 
 1 2 3 5 6 7 8 10 12 13 14 15 
 16 17 19 20 21 22 23 24 25 26 27 29 
 30 31 32 34 35 36 37 38 40 41 42 43 
 44 46 47 48 49 50 51 52 53 54 55 56 
 57 58 59 60 61 62 63 66 67 68 
 44 
 1 4 5 8 9 10 11 12 15 16 18 19 
 20 23 24 25 26 28 29 30 31 32 33 34 
 35 36 37 38 39 40 42 48 49 52 55 56 
 58 61 63 64 65 66 67 68 
 50 
 1 3 4 5 6 7 9 12 13 14 15 16 
 18 19 20 21 22 25 26 27 28 29 30 31 
 32 33 36 37 39 40 41 42 46 47 48 49 
 52 54 55 57 58 59 61 62 63 64 65 66 
 68 69 
 47 
 1 5 6 8 10 11 12 13 15 16 17 18 
 20 21 22 24 25 26 27 28 29 33 34 35 
 36 38 39 41 42 45 47 48 49 50 53 55 
 56 57 58 59 60 61 65 66 67 68 69 
 46 
 1 2 3 7 9 10 12 13 14 15 17 18 
 19 20 21 23 25 26 27 28 30 31 32 33 
 34 37 38 39 40 41 43 46 48 49 50 51 
 52 55 56 59 61 62 64 65 66 69 
 39 
 1 3 6 8 9 10 12 13 14 15 17 18 
 19 20 22 26 28 31 32 33 36 37 38 39 
 40 41 43 45 51 52 53 54 55 58 61 63 
 65 66 67 
 58 
 1 3 4 5 6 7 9 10 11 14 15 16 
 17 18 19 20 21 22 24 25 26 28 29 30 
 31 32 33 34 35 36 38 39 40 41 43 44 
 45 47 48 49 50 51 52 53 54 55 56 57 
 58 59 61 62 63 64 65 66 67 69 
 59 
 1 2 3 4 5 8 9 10 12 13 14 15 
 16 17 18 19 20 21 22 23 24 25 26 27 
 28 29 31 32 33 34 35 36 37 38 39 40 
 41 43 44 45 46 47 49 50 51 52 53 55 
 56 57 58 59 60 62 63 64 66 67 69 
 60 
 2 3 5 6 7 8 10 11 12 13 14 18 
 19 20 21 22 23 24 25 26 27 28 29 30 
 31 32 33 34 35 36 37 38 40 41 42 43 
 44 45 46 47 48 49 50 51 54 55 56 57 
 58 59 60 61 62 63 64 65 66 67 68 69 
 41 
 2 3 4 8 11 12 13 14 15 16 17 18 
 20 21 22 23 24 27 29 30 31 35 37 41 
 42 45 46 47 50 53 55 56 59 60 61 62 
 63 64 65 66 68 
 61 
 1 2 3 4 5 7 8 9 10 11 12 13 
 14 15 16 17 18 19 21 22 25 26 27 29 
 30 31 32 33 34 35 36 38 39 40 41 42 
 43 44 45 46 47 48 49 50 51 52 53 54 
 56 57 58 59 60 61 62 63 65 66 67 68 
 69 
 41 
 3 5 6 7 9 10 14 15 16 19 21 22 
 25 26 27 29 30 31 33 34 35 36 39 43 
 45 46 47 49 51 52 54 55 57 58 60 62 
 63 64 66 67 68 
 26 
 1 5 9 10 11 12 16 19 20 21 26 32 
 33 36 37 40 41 49 52 54 57 60 62 64 
 65 68 
 6 
 1 8 10 34 39 50 
 37 
 1 4 6 9 11 12 14 15 16 18 20 27 
 29 30 32 33 35 36 39 40 41 44 45 46 
 48 49 50 52 53 55 56 57 58 61 64 66 
 68 
 43 
 1 2 4 5 7 8 10 11 12 14 17 19 
 20 22 24 26 29 30 31 32 35 36 37 39 
 41 42 46 48 49 50 52 53 54 55 56 57 
 58 59 60 61 63 66 67 
 59 
 1 2 3 4 5 6 7 8 9 10 11 13 
 14 16 17 19 20 21 22 23 24 26 28 29 
 30 31 32 33 34 35 36 37 38 41 42 43 
 44 45 47 49 50 51 52 53 54 55 56 58 
 59 60 61 62 63 64 65 66 67 68 69 
 67 
 1 2 3 4 5 6 7 8 9 10 11 12 
 13 14 15 16 17 18 19 20 21 22 23 24 
 25 26 27 28 29 30 31 32 33 34 35 36 
 37 38 39 40 41 42 43 44 45 46 47 48 
 49 50 51 52 53 54 55 56 57 58 60 61 
 62 63 64 65 66 67 69 
 10 
 1 2 4 10 33 34 35 42 53 60 
 2 
 19 51 
 26 
 2 3 5 13 16 26 28 29 30 33 36 38 
 39 40 42 45 50 56 57 58 62 63 65 66 
 67 68 
 65 
 1 2 3 4 5 6 7 8 9 10 11 12 
 13 14 15 16 17 18 19 20 22 23 24 25 
 26 27 28 29 30 32 33 34 35 36 37 38 
 39 40 41 42 43 44 45 46 47 48 49 50 
 51 52 53 54 55 56 57 58 60 61 62 63 
 64 65 67 68 69 
 10 
 3 8 21 25 26 34 50 53 59 62 
 42 
 4 6 8 9 12 13 14 16 17 18 20 21 
 22 23 26 27 28 29 30 31 34 36 37 40 
 41 46 47 48 49 50 51 55 56 57 58 60 
 61 62 64 67 68 69 
 62 
 1 2 3 4 5 7 8 10 11 12 13 14 
 15 16 17 19 20 21 22 23 25 26 27 28 
 29 30 31 32 33 34 35 36 37 38 39 41 
 42 43 44 45 46 47 48 49 50 51 53 54 
 55 56 57 58 59 60 61 62 63 64 65 66 
 68 69 
 28 
 1 2 5 9 11 14 22 24 28 29 34 36 
 41 44 45 46 47 48 49 50 51 54 58 59 
 64 65 67 69 
 27 
 2 3 6 7 8 10 13 14 15 18 19 21 
 24 28 30 33 36 41 47 49 51 52 53 57 
 59 61 64 
 63 
 1 2 3 4 5 6 7 8 9 10 11 12 
 13 14 15 16 18 19 20 21 22 23 25 27 
 28 29 30 31 32 33 34 35 36 37 38 39 
 40 41 43 44 45 46 47 48 49 50 51 52 
 53 54 55 56 57 58 59 61 62 63 64 66 
 67 68 69 
 50 
 1 2 3 4 5 7 8 9 11 12 13 15 
 16 18 20 21 22 23 24 25 26 27 28 29 
 30 31 34 37 38 39 40 41 42 43 45 47 
 48 49 50 51 52 53 54 55 57 58 60 66 
 68 69 
 19 
 1 2 4 5 6 16 17 21 24 31 35 39 
 40 47 48 53 55 60 64 
 43 
 1 5 8 12 13 15 16 17 18 19 20 21 
 22 23 26 31 32 33 34 35 36 38 39 40 
 42 43 44 45 46 48 51 52 53 54 55 57 
 59 60 62 63 64 67 69 
 43 
 2 3 4 5 6 7 10 11 14 15 16 18 
 19 20 21 23 24 25 27 29 31 32 33 35 
 36 37 39 40 41 42 45 47 48 51 52 53 
 57 58 59 60 61 63 69 
 13 
 6 7 8 10 13 20 29 30 42 43 47 49 
 66 
 47 
 2 5 6 8 12 13 16 17 18 19 20 21 
 22 24 26 27 28 29 32 33 35 36 37 38 
 39 41 42 44 45 46 47 49 51 52 54 56 
 57 58 59 61 62 63 64 65 66 67 68 
 17 
 1 5 9 11 21 22 33 37 39 40 42 45 
 46 49 58 60 68 
 11 
 12 15 20 34 35 37 40 43 46 60 68 
 38 
 1 3 5 6 7 9 10 12 13 15 17 20 
 21 23 24 25 29 30 32 33 35 37 39 40 
 42 44 47 49 50 52 54 55 57 63 64 65 
 66 68 
 40 
 1 3 4 5 6 11 14 15 16 17 18 19 
 20 21 22 26 28 32 35 36 37 38 40 44 
 45 46 48 49 50 53 54 55 56 59 62 64 
 65 66 67 69 
 17 
 6 11 16 26 27 29 35 39 43 45 46 49 
 53 54 56 61 69 
 7 
 11 40 42 43 44 45 57 
 62 
 1 2 5 6 8 9 10 11 12 14 15 16 
 17 18 20 21 23 24 25 26 27 28 29 30 
 31 32 33 34 35 36 37 38 39 40 41 42 
 43 44 45 46 47 48 49 50 51 52 53 54 
 55 56 57 58 59 60 61 63 64 65 66 67 
 68 69 
 27 
 3 5 6 12 14 15 18 19 23 24 28 29 
 32 36 37 39 40 44 45 49 50 53 54 57 
 59 63 68 
 20 
 3 8 14 15 18 22 24 25 28 29 30 31 
 32 39 46 52 57 59 61 68 
 23 
 2 4 7 10 12 13 17 18 25 27 30 31 
 33 36 38 39 45 46 57 58 59 60 61 
 17 
 8 9 16 19 27 30 32 33 34 38 39 46 
 51 53 55 57 61 
 25 
 1 4 7 12 15 17 18 21 24 28 31 33 
 34 37 40 43 47 48 49 53 55 58 61 62 
 64 
 51 
 1 2 3 4 6 7 8 9 10 11 12 13 
 15 16 17 18 20 21 22 23 24 25 26 27 
 28 29 32 33 34 35 36 38 39 40 41 42 
 43 46 47 48 50 51 54 57 58 60 62 64 
 65 68 69 
 65 
 1 2 3 4 5 7 8 9 10 11 12 13 
 14 15 16 17 18 19 20 21 22 23 24 25 
 27 28 29 30 31 32 33 34 35 37 38 39 
 40 41 42 43 44 45 46 47 48 49 50 51 
 52 54 55 56 57 58 59 60 61 62 63 64 
 65 66 67 68 69 
 16 
 5 7 14 16 22 24 27 34 45 47 58 60 
 61 63 66 69 
 20 
 1 2 4 10 12 15 18 19 21 30 33 39 
 40 41 47 48 49 54 60 67 
 46 
 2 3 5 8 10 12 13 15 18 20 21 22 
 23 25 26 28 29 31 32 34 35 37 38 40 
 42 43 44 45 48 51 52 53 54 55 56 57 
 58 59 60 63 64 65 66 67 68 69 
 35 
 1 2 4 6 7 8 9 10 13 14 18 20 
 21 22 23 24 25 27 32 37 38 40 41 43 
 45 46 50 53 57 60 62 65 67 68 69 
 45 
 1 2 3 4 5 7 8 11 13 15 17 18 
 19 21 22 24 27 28 30 31 32 33 37 38 
 39 40 41 42 44 45 47 49 50 51 53 55 
 57 58 60 61 63 64 65 67 68 
 62 
 1 2 3 4 5 6 7 8 9 10 11 13 
 14 15 17 18 19 20 21 22 23 24 25 26 
 27 28 29 31 32 33 34 35 36 37 38 39 
 40 42 43 45 46 47 48 49 50 51 52 53 
 55 56 57 58 59 60 61 62 63 64 65 66 
 67 68 
 23 
 7 9 11 12 21 27 29 32 33 35 40 41 
 42 43 44 48 49 51 52 54 55 59 62 
 69 
 1 2 3 4 5 6 7 8 9 10 11 12 
 13 14 15 16 17 18 19 20 21 22 23 24 
 25 26 27 28 29 30 31 32 33 34 35 36 
 37 38 39 40 41 42 43 44 45 46 47 48 
 49 50 51 52 53 54 55 56 57 58 59 60 
 61 62 63 64 65 66 67 68 69 
 63 
 1 2 4 5 6 7 8 9 10 12 13 14 
 15 16 17 18 19 20 21 22 23 24 25 26 
 28 30 31 33 34 35 36 37 38 39 40 41 
 42 43 44 45 46 47 48 49 50 51 52 53 
 54 55 56 57 58 59 61 62 63 64 65 66 
 67 68 69 
 58 
 1 2 3 4 5 6 7 8 9 10 11 12 
 13 14 15 17 18 19 20 21 22 23 25 26 
 27 28 29 32 33 36 37 39 40 41 42 43 
 44 45 47 48 49 50 51 52 53 54 55 56 
 57 58 59 61 62 63 64 65 67 69 
 63 
 1 2 3 4 5 6 7 8 9 10 11 12 
 13 14 15 16 17 18 19 20 21 22 23 24 
 25 27 28 29 30 31 32 33 34 35 36 38 
 41 42 43 44 45 46 47 48 49 50 51 52 
 54 55 56 57 58 59 60 62 63 64 65 66 
 67 68 69 
 26 
 1 3 5 6 15 17 18 19 23 25 27 36 
 38 39 42 43 45 49 50 55 57 58 59 61 
 65 66 
 50 
 1 2 3 5 6 7 8 9 10 11 13 15 
 16 17 18 20 21 22 23 26 27 28 29 31 
 33 34 36 38 39 40 41 43 44 46 47 48 
 51 52 53 54 56 57 58 59 60 62 63 65 
 66 69 
 25 
 2 4 5 10 13 14 26 27 30 31 33 36 
 41 42 43 44 45 47 53 55 56 60 63 65 
 66 
 37 
 1 2 5 6 8 9 11 13 14 15 16 17 
 18 19 22 24 25 29 34 35 39 41 45 46 
 48 49 50 52 53 54 56 57 59 61 63 66 
 69 
 10 
 7 14 29 40 41 43 48 52 55 64 
 37 
 2 3 6 7 9 10 15 16 17 18 21 22 
 25 30 31 32 37 40 41 42 44 45 46 47 
 51 53 55 56 57 58 59 62 63 64 65 66 
 67 
 6 
 12 41 42 49 55 64 
 11 
 2 9 22 34 38 48 50 56 59 63 64 
 13 
 6 15 18 25 38 41 43 49 56 57 58 60 
 67 
 44 
 1 2 3 5 10 11 14 16 17 19 21 22 
 24 26 27 28 29 30 31 32 34 35 37 39 
 41 42 43 44 46 48 49 51 54 55 56 57 
 58 59 60 61 64 65 67 69 
 2 
 52 66 
 41 
 1 3 4 6 8 9 10 11 12 13 14 15 
 16 17 18 19 20 21 23 24 26 30 31 33 
 34 35 36 37 39 40 41 42 48 50 53 55 
 56 61 62 63 67 
 18 
 8 17 22 26 30 31 33 37 39 41 44 46 
 50 54 55 56 59 65 
 40 
 1 2 3 5 6 8 10 13 14 15 18 19 
 20 22 24 25 26 31 32 33 34 37 38 40 
 41 42 43 44 48 51 52 53 54 56 60 61 
 63 65 66 67 
 55 
 1 2 3 4 5 6 7 8 11 12 13 14 
 15 16 18 20 21 22 23 24 25 26 27 28 
 29 30 32 33 34 35 37 39 41 42 43 44 
 45 47 48 49 50 52 53 54 55 56 57 58 
 61 62 63 64 65 66 69 
 53 
 1 2 3 4 5 6 7 8 10 11 12 13 
 14 15 17 20 22 23 24 25 26 27 29 31 
 32 34 35 37 38 39 40 42 43 44 45 48 
 49 50 52 55 56 58 59 60 61 62 63 64 
 65 66 67 68 69 
 17 
 2 3 10 16 20 26 34 35 38 41 48 50 
 51 52 55 62 63 
 65 
 1 2 3 4 5 6 7 8 10 11 12 13 
 14 16 17 18 19 20 21 22 23 24 26 27 
 28 29 30 31 32 33 34 35 36 37 38 39 
 40 41 42 43 44 45 46 47 48 49 51 52 
 53 54 55 56 57 58 59 60 61 62 63 64 
 65 66 67 68 69 
 25 
 4 7 9 11 17 20 22 23 24 27 34 35 
 36 44 46 47 52 55 57 58 59 60 62 67 
 68 
 19 
 4 5 8 10 12 15 18 19 23 26 28 30 
 37 39 40 42 57 68 69 
 